[2026-03-23T16:25:54.954Z] Pipeline "set_ds_1_ds_1_s006_g003" → 2026_03_23_16_25_54_set_ds_1_ds_1_s006_g003_max.sol
Set parameter WLSAccessID
Set parameter WLSSecret
Set parameter LicenseID to value 2792458
Set parameter LogFile to value "gurobi.log"
Using license file /root/gurobi.lic
Academic license 2792458 - for non-commercial use only - registered to an___@studenti.unipg.it

Gurobi Optimizer version 13.0.1 build v13.0.1rc0 (linux64 - "Ubuntu 24.04.4 LTS")
Copyright (c) 2026, Gurobi Optimization, LLC

Warning: Duplicate section found (read 'binary') - Is a variable name equal to an LP file format keyword?
Warning: Duplicate section found (read 'binary') - Is a variable name equal to an LP file format keyword?
Warning: Duplicate section found (read 'binary') - Is a variable name equal to an LP file format keyword?
Warning: Duplicate section found (read 'binary') - Is a variable name equal to an LP file format keyword?
Warning: Duplicate section found (read 'binary') - Is a variable name equal to an LP file format keyword?
Warning: Duplicate section found (read 'binary') - Is a variable name equal to an LP file format keyword?
Warning: Duplicate section found (read 'binary') - Is a variable name equal to an LP file format keyword?
Warning: Duplicate section found (read 'binary') - Is a variable name equal to an LP file format keyword?
Warning: Duplicate section found (read 'binary') - Is a variable name equal to an LP file format keyword?
Warning: Duplicate section found (read 'binary') - Is a variable name equal to an LP file format keyword?
Warning: Further warnings of this type will be omitted.
Read LP format model from file /root/bgw/data/uploads/2026_03_23_16_25_54_set_ds_1_ds_1_s006_g003_max.lp
Reading time = 0.00 seconds
: 1476 rows, 204 columns, 4361 nonzeros

Using Gurobi shared library /opt/gurobi1301/linux64/lib/libgurobi.so.13.0.1

CPU model: AMD EPYC-Genoa Processor, instruction set [SSE2|AVX|AVX2|AVX512]
Thread count: 16 physical cores, 16 logical processors, using up to 16 threads

Academic license 2792458 - for non-commercial use only - registered to an___@studenti.unipg.it
Optimize a model with 1476 rows, 204 columns and 4361 nonzeros (Max)
Model fingerprint: 0x005db6c6
Model has 20 linear objective coefficients
Variable types: 36 continuous, 168 integer (168 binary)
Coefficient statistics:
  Matrix range     [1e+00, 2e+01]
  Objective range  [1e+00, 1e+00]
  Bounds range     [1e+00, 1e+00]
  RHS range        [1e+00, 2e+01]

Found heuristic solution: objective 20.0000000
Presolve removed 324 rows and 65 columns
Presolve time: 0.01s
Presolved: 1152 rows, 139 columns, 3534 nonzeros
Variable types: 0 continuous, 139 integer (133 binary)
Found heuristic solution: objective 34.0000000

Root relaxation: objective 1.050000e+02, 86 iterations, 0.00 seconds (0.00 work units)

    Nodes    |    Current Node    |     Objective Bounds      |     Work
 Expl Unexpl |  Obj  Depth IntInf | Incumbent    BestBd   Gap | It/Node Time

     0     0  105.00000    0   26   34.00000  105.00000   209%     -    0s
H    0     0                      46.0000000  105.00000   128%     -    0s
H    0     0                      50.0000000  105.00000   110%     -    0s
H    0     0                      53.0000000  105.00000  98.1%     -    0s
     0     0  105.00000    0   18   53.00000  105.00000  98.1%     -    0s
     0     0  105.00000    0   19   53.00000  105.00000  98.1%     -    0s
     0     0  105.00000    0   14   53.00000  105.00000  98.1%     -    0s
H    0     0                      55.0000000  105.00000  90.9%     -    0s
     0     0  105.00000    0   13   55.00000  105.00000  90.9%     -    0s
     0     0  105.00000    0   13   55.00000  105.00000  90.9%     -    0s
     0     0  105.00000    0   21   55.00000  105.00000  90.9%     -    0s
     0     0  105.00000    0   20   55.00000  105.00000  90.9%     -    0s
     0     0  104.78571    0   20   55.00000  104.78571  90.5%     -    0s
     0     0  104.78571    0   14   55.00000  104.78571  90.5%     -    0s
     0     0  102.00000    0   20   55.00000  102.00000  85.5%     -    0s
     0     0  102.00000    0   14   55.00000  102.00000  85.5%     -    0s
     0     0   98.00000    0   20   55.00000   98.00000  78.2%     -    0s
     0     0   98.00000    0   17   55.00000   98.00000  78.2%     -    0s
     0     0   98.00000    0   17   55.00000   98.00000  78.2%     -    0s
     0     0   98.00000    0   17   55.00000   98.00000  78.2%     -    0s
     0     2   98.00000    0   14   55.00000   98.00000  78.2%     -    0s

Cutting planes:
  Cover: 13
  Inf proof: 39

Explored 3532 nodes (111459 simplex iterations) in 0.97 seconds (0.86 work units)
Thread count was 16 (of 16 available processors)

Solution count 6: 55 53 50 ... 20

Optimal solution found (tolerance 1.00e-04)
Best objective 5.500000000000e+01, best bound 5.500000000000e+01, gap 0.0000%

Wrote result file '/root/bgw/data/results/2026_03_23_16_25_54_set_ds_1_ds_1_s006_g003_max.sol'

